9550
1 1 1 0 0 1 0 1 1 1 1 1 1 1 1 1 0 1 0 1 0 0 0 0 1 1 0 1 1 1 
10 0 10 10 10 0 10 1 1 1 1 1 1 11 11 2 2 2 2 2 2 5 5 5 5 5 5 7 8 8 8 8 8 9 10 2 2 17 24 28 28 12 15 28 24 14 14 17 29 28 29 27 13 11 25 14 13 28 12 17 19 15 28 28 14 27 17 13 15 12 